cost: 741.68
Route 1:           0   18   13   41   40   19   42    4   47    0
Route 2:           0   38    9   30   34   50   21   29   16   11   46    0
Route 3:           0    6   14   25   24   43    7   23   48   27    0
Route 4:           0   17   37   44   15   45   33   39   10   49    5   12    0
Route 5:           0    1   22    8   26   31   28    3   36   35   20    2   32    0
